c 
p cnf 10 40
-5 -2 10 -7 0
2 8 -6 -3 0
8 -6 2 0
-8 10 7 1 0
-6 9 5 -10 0
2 1 -10 0
3 8 -1 5 0
-5 -4 -6 8 0
-8 5 3 -2 0
-2 5 -1 0
2 0
-3 9 10 6 0
-7 2 0
-4 -8 2 9 0
-3 4 0
4 0
7 -4 -6 -5 3 0
-5 9 0
-8 6 -9 -7 0
6 0
-4 -2 9 0
-3 -9 1 -7 0
-3 2 -5 10 6 0
4 0
5 -10 0
5 -8 -10 -2 0
-5 -6 0
3 2 0
10 -1 -4 2 0
10 -2 0
-2 1 0
-6 2 3 4 -10 0
3 0
-1 -4 0
6 -1 -8 0
-8 -1 0
-6 4 0
-4 7 3 -1 0
10 7 0
5 -3 -6 0
